
Gurobi 12.0.3 (linux64) logging started Mon Aug 18 01:12:30 2025

Set parameter LogFile to value "logs/instance-04.txt"
Gurobi Optimizer version 12.0.3 build v12.0.3rc0 (linux64 - "Ubuntu 24.04.3 LTS")

CPU model: Intel(R) Core(TM) i5-8250U CPU @ 1.60GHz, instruction set [SSE2|AVX|AVX2]
Thread count: 4 physical cores, 8 logical processors, using up to 8 threads

Non-default parameters:
TimeLimit  900

Optimize a model with 3725 rows, 1275 columns and 9946 nonzeros
Model fingerprint: 0x6914035e
Variable types: 1225 continuous, 50 integer (50 binary)
Coefficient statistics:
  Matrix range     [1e+00, 1e+00]
  Objective range  [1e+00, 1e+01]
  Bounds range     [1e+00, 1e+00]
  RHS range        [1e+00, 1e+00]
Found heuristic solution: objective -159.0000000
Found heuristic solution: objective 12.0000000
Presolve removed 1930 rows and 60 columns
Presolve time: 0.03s
Presolved: 1795 rows, 1215 columns, 5409 nonzeros
Variable types: 1165 continuous, 50 integer (50 binary)
Found heuristic solution: objective 94.0000000

Root relaxation: objective 1.563000e+03, 906 iterations, 0.03 seconds (0.03 work units)

    Nodes    |    Current Node    |     Objective Bounds      |     Work
 Expl Unexpl |  Obj  Depth IntInf | Incumbent    BestBd   Gap | It/Node Time

     0     0 1563.00000    0   50   94.00000 1563.00000  1563%     -    0s
H    0     0                     253.0000000 1563.00000   518%     -    0s
H    0     0                     393.0000000  993.35518   153%     -    0s
     0     0  993.35518    0   50  393.00000  993.35518   153%     -    0s
     0     0  732.07179    0   50  393.00000  732.07179  86.3%     -    0s
     0     0  672.21545    0   50  393.00000  672.21545  71.0%     -    1s
     0     0  661.87374    0   50  393.00000  661.87374  68.4%     -    1s
H    0     0                     395.0000000  658.76695  66.8%     -    2s
H    0     0                     481.0000000  658.76695  37.0%     -    2s
     0     0  658.76695    0   50  481.00000  658.76695  37.0%     -    2s
H    0     0                     503.0000000  657.66587  30.7%     -    2s
     0     0  657.66587    0   50  503.00000  657.66587  30.7%     -    2s
H    0     0                     507.0000000  657.07848  29.6%     -    2s
     0     0  657.07848    0   50  507.00000  657.07848  29.6%     -    2s
     0     0  656.78035    0   50  507.00000  656.78035  29.5%     -    2s
H    0     0                     508.0000000  644.66667  26.9%     -    3s
H    0     0                     526.0000000  644.66667  22.6%     -    3s
H    0     0                     529.0000000  644.66667  21.9%     -    3s
H    0     0                     537.0000000  644.66667  20.0%     -    3s
     0     0  644.66667    0   50  537.00000  644.66667  20.0%     -    3s
H    0     0                     551.0000000  644.16667  16.9%     -    3s
     0     0  644.16667    0   50  551.00000  644.16667  16.9%     -    3s
H    0     0                     553.0000000  644.16667  16.5%     -    4s
H    0     0                     577.0000000  641.43731  11.2%     -    4s
     0     0  641.43731    0   50  577.00000  641.43731  11.2%     -    4s
H    0     0                     578.0000000  641.43089  11.0%     -    5s
     0     2  641.43089    0   50  578.00000  641.43089  11.0%     -    5s
    51     9     cutoff   12       578.00000  593.33845  2.65%  1043   10s

Cutting planes:
  Gomory: 2
  MIR: 49
  Flow cover: 107
  RLT: 559
  BQP: 1352

Explored 71 nodes (73524 simplex iterations) in 10.54 seconds (12.00 work units)
Thread count was 8 (of 8 available processors)

Solution count 10: 578 577 553 ... 503

Optimal solution found (tolerance 1.00e-04)
Best objective 5.780000000000e+02, best bound 5.780000000000e+02, gap 0.0000%
